p sp 32 32
a 1 2 1
a 2 3 1
a 3 4 1
a 4 5 1
a 5 6 1
a 6 7 1
a 7 8 1
a 8 9 1
a 9 10 1
a 10 11 1
a 11 12 1
a 12 13 1
a 13 14 1
a 14 15 1
a 15 16 1
a 16 17 1
a 17 18 1
a 18 19 1
a 19 20 1
a 20 21 1
a 21 22 1
a 22 23 1
a 23 24 1
a 24 25 1
a 25 26 1
a 26 27 1
a 27 28 1
a 28 29 1
a 29 30 1
a 30 31 1
a 31 32 1
a 32 1 1


